atom_style      full
bond_style      harmonic
angle_style     harmonic

log		e-reconstruct.log append

label		loop
variable 	i1 loop 109 110
	clear
	atom_style      full
	bond_style      harmonic
	angle_style     harmonic

	read_data       end_of_${i1}.min.temp
	print		"end_of_${i1}.min.temp"
	group		delWat type 7
	delete_atoms	group delWat bond yes 

	bond_coeff      1 450 0.9572
	bond_coeff	2 369.6 0.974

	angle_coeff     1 55 104.52

	mass 1 15.9994
	mass 2 1.008
	mass 3 55.85
	mass 4 15.9994
	mass 5 1.008
	mass 6 15.9994
	mass 7 1.0  # dummy index 

	group		delWat delete
	
	write_data	end_of_${i1}.min.temp
	next		i1
jump SELF loop
